p cnf 10 25
6 -8 -9 0
-1 1 -7 0
7 -7 -7 0
1 2 3 4 5 6 7 8 9 10 0
-1 -2 5 0
-3 10 7 0
4 9 -7 0
4 6 10 0
-8 -9 9 0
-9 -3 8 0
-1 -2 -3 -4 -5 -6 -7 -8 -9 -10 0
-2 6 -10 0
1 2 6 0
-8 -2 -3 0
9 2 5 0
8 -3 7 0
-9 7 -7 0
-4 7 5 0
9 1 -10 0
6 1 -8 0
8 8 7 0
5 1 9 0
7 -10 -5 0
-6 -9 9 0
3 4 9 0
